c 1 JHipster
c 2 Hibernate2ndLvlCache
c 3 HazelCast
c 4 EhCache
c 5 Server
c 6 MicroserviceApplication
c 7 UaaServer
c 8 BackEnd
c 9 Gradle
c 10 Maven
c 11 Generator
c 12 Authentication
c 13 SocialLogin
c 14 Database
c 15 SpringWebSockets
c 16 Libsass
c 17 ClusteredSession
c 18 InternationalizationSupport
c 19 Docker
c 20 TestingFrameworks
c 21 Production
c 22 MySQL
c 23 MariaDB
c 24 PostgreSQL
c 25 SQL
c 26 Cassandra
c 27 MongoDB
c 28 Development
c 29 H2
c 30 PostgreSQLDev
c 31 MariaDBDev
c 32 MySQLDev
c 33 DiskBased
c 34 InMemory
c 35 ElasticSearch
c 36 HTTPSession
c 37 OAuth2
c 38 Uaa
c 39 JWT
c 40 Protractor
c 41 Gatling
c 42 Cucumber
c 43 Application
c 44 MicroserviceGateway
c 45 Monolithic
p cnf 45 104
1 0
2 -3 0
2 -4 0
3 4 -2 0
-3 -4 0
5 -6 0
5 -7 0
6 7 -5 0
-6 -7 0
8 -9 0
8 -10 0
9 10 -8 0
-9 -10 0
1 -11 0
1 -12 0
1 -13 0
1 -14 0
1 -15 0
1 -16 0
1 -17 0
1 -8 0
1 -18 0
1 -19 0
1 -20 0
11 -1 0
12 -1 0
8 -1 0
20 -1 0
21 -22 0
21 -23 0
21 -24 0
22 23 24 -21 0
-22 -23 0
-22 -24 0
-23 -24 0
14 -25 0
14 -26 0
14 -27 0
25 26 27 -14 0
-25 -26 0
-25 -27 0
-26 -27 0
28 -29 0
28 -30 0
28 -31 0
28 -32 0
29 30 31 32 -28 0
-29 -30 0
-29 -31 0
-29 -32 0
-30 -31 0
-30 -32 0
-31 -32 0
29 -33 0
29 -34 0
33 34 -29 0
-33 -34 0
25 -2 0
25 -28 0
25 -21 0
25 -35 0
28 -25 0
21 -25 0
12 -36 0
12 -37 0
12 -38 0
12 -39 0
36 37 38 39 -12 0
-36 -37 0
-36 -38 0
-36 -39 0
-37 -38 0
-37 -39 0
-38 -39 0
20 -40 0
20 -41 0
20 -42 0
41 -20 0
42 -20 0
43 -44 0
43 -45 0
44 45 -43 0
-44 -45 0
11 -5 0
11 -43 0
5 43 -11 0
-5 -43 0
-37 13 6 25 27 0
-13 36 39 0
-13 45 0
-13 25 27 0
-7 38 0
37 13 6 25 27 26 0
-5 -40 0
5 40 0
-22 29 32 0
-6 39 38 0
-44 39 38 0
-45 39 36 37 0
-23 29 31 0
-24 29 30 0
-17 43 0
-15 43 0
-16 43 0
